100 8
120 583
697 865
966 834
870 395
808 856
732 781
436 444
686 740
797 654
672 622
640 641
455 387
777 752
679 101
424 136
615 742
517 570
275 538
655 757
463 829
105 472
962 664
477 756
245 610
619 29
289 710
841 344
52 221
397 424
845 173
284 764
52 505
715 861
617 87
540 23
137 428
133 634
768 297
584 72
500 207
474 178
802 782
609 96
549 480
679 764
887 846
221 662
163 552
213 770
71 523
578 705
69 212
322 765
623 158
481 744
882 146
964 506
438 59
644 647
757 174
170 626
780 942
327 759
633 824
155 592
533 148
45 148
868 257
542 690
218 557
290 793
175 496
852 786
477 179
689 604
384 529
385 545
779 664
441 450
561 75
487 176
451 754
511 357
512 127
512 169
859 321
580 778
842 326
537 500
38 546
79 92
747 837
241 511
725 857
681 925
592 499
623 144
494 100
469 663
280 598
